NAME : CMT7
TYPE : CVRP
COMMENT : 909.68
DIMENSION : 76
VEHICLES : 11
CAPACITY : 140
DISTANCE : 160.00000
SERVICE_TIME : 10.0
EDGE_WEIGHT_TYPE : EXACT_2D
NODE_COORD_SECTION
1 22.00000 22.00000
2 36.00000 26.00000
3 21.00000 45.00000
4 45.00000 35.00000
5 55.00000 20.00000
6 33.00000 34.00000
7 50.00000 50.00000
8 55.00000 45.00000
9 26.00000 59.00000
10 40.00000 66.00000
11 55.00000 65.00000
12 35.00000 51.00000
13 62.00000 35.00000
14 62.00000 57.00000
15 62.00000 24.00000
16 21.00000 36.00000
17 33.00000 44.00000
18 9.00000 56.00000
19 62.00000 48.00000
20 66.00000 14.00000
21 44.00000 13.00000
22 26.00000 13.00000
23 11.00000 28.00000
24 7.00000 43.00000
25 17.00000 64.00000
26 41.00000 46.00000
27 55.00000 34.00000
28 35.00000 16.00000
29 52.00000 26.00000
30 43.00000 26.00000
31 31.00000 76.00000
32 22.00000 53.00000
33 26.00000 29.00000
34 50.00000 40.00000
35 55.00000 50.00000
36 54.00000 10.00000
37 60.00000 15.00000
38 47.00000 66.00000
39 30.00000 60.00000
40 30.00000 50.00000
41 12.00000 17.00000
42 15.00000 14.00000
43 16.00000 19.00000
44 21.00000 48.00000
45 50.00000 30.00000
46 51.00000 42.00000
47 50.00000 15.00000
48 48.00000 21.00000
49 12.00000 38.00000
50 15.00000 56.00000
51 29.00000 39.00000
52 54.00000 38.00000
53 55.00000 57.00000
54 67.00000 41.00000
55 10.00000 70.00000
56 6.00000 25.00000
57 65.00000 27.00000
58 40.00000 60.00000
59 70.00000 64.00000
60 64.00000 4.00000
61 36.00000 6.00000
62 30.00000 20.00000
63 20.00000 30.00000
64 15.00000 5.00000
65 50.00000 70.00000
66 57.00000 72.00000
67 45.00000 42.00000
68 38.00000 33.00000
69 50.00000 4.00000
70 66.00000 8.00000
71 59.00000 5.00000
72 35.00000 60.00000
73 27.00000 24.00000
74 40.00000 20.00000
75 40.00000 37.00000
76 40.00000 40.00000
DEMAND_SECTION
1 18
2 26
3 11
4 30
5 21
6 19
7 15
8 16
9 29
10 26
11 37
12 16
13 12
14 31
15 8
16 19
17 20
18 13
19 15
20 22
21 28
22 12
23 6
24 27
25 14
26 18
27 17
28 29
29 13
30 22
31 25
32 28
33 27
34 19
35 10
36 12
37 14
38 24
39 16
40 33
41 15
42 11
43 18
44 17
45 21
46 27
47 19
48 20
49 5
50 22
51 12
52 19
53 22
54 16
55 7
56 26
57 14
58 21
59 24
60 13
61 15
62 18
63 11
64 28
65 9
66 37
67 30
68 10
69 8
70 11
71 3
72 1
73 6
74 10
75 20
76 0
DEPOT_SECTION
76
-1
EOF
